nbNodes = 12;
nbVehi = 10;
nbServi = 5;

e = 
 [|    0,  208,  113,   28,  298,  140,  301,   52,   50,  471,  110,    0,
 |    0,  302,  137,  308,  251,  252,  460,  389,    7,  399,  247,    0,
 |    0,  451,  371,  236,   86,  169,  377,  404,   44,  127,  254,    0,
 |    0,   87,  404,  340,  443,  235,  363,  291,  258,  209,  273,    0,
 |    0,   89,  384,  232,  259,  258,  288,  296,  356,  142,  444,    0,
 |];

l = 
 [| 480, 266, 157,  86, 330, 185, 352,  87, 102, 504, 167, 480,
 | 480, 360, 185, 364, 283, 310, 498, 422,  38, 457, 295, 480,
 | 480, 487, 422, 267, 126, 216, 428, 435,  86, 158, 284, 480,
 | 480, 118, 454, 396, 476, 289, 393, 346, 299, 241, 331, 480,
 | 480, 145, 414, 287, 308, 313, 339, 350, 413, 202, 484, 480,
 |];

a = 
 [|  1,  0,  0,  0,  0,
 |  0,  1,  0,  1,  0,
 |  0,  0,  1,  0,  0,
 |  0,  1,  0,  1,  0,
 |  0,  0,  0,  0,  1,
 |  1,  0,  0,  1,  0,
 |  0,  1,  0,  0,  0,
 |  0,  0,  1,  0,  1,
 |  1,  0,  0,  1,  0,
 |  0,  0,  1,  0,  1,
 |];

p = array3d(1..nbNodes,1..nbVehi,1..nbServi,
[  0,  0,  0,  0,  0,	  0,  0,  0,  0,  0,	  0,  0,  0,  0,  0,	  0,  0,  0,  0,  0,	  0,  0,  0,  0,  0,	  0,  0,  0,  0,  0,	  0,  0,  0,  0,  0,	  0,  0,  0,  0,  0,	  0,  0,  0,  0,  0,	  0,  0,  0,  0,  0,	
  9, 11, 20, 21, 24,	 25, 16,  5,  9, 18,	 17, 22, 11,  5, 10,	 17, 22, 24, 13, 21,	 23, 12, 23, 28, 12,	 27, 25, 27, 21, 10,	 25, 25, 18, 15, 18,	 14, 13,  7, 15, 17,	 20, 27, 11, 29, 28,	 18, 16, 20, 12, 26,	
 13,  6,  9,  6, 29,	 18, 28, 26, 16, 22,	  9, 13, 19, 22, 26,	  8,  7,  9, 10, 19,	 23, 27, 16,  6, 26,	 14, 19, 14,  6, 26,	 11, 14, 27, 17, 16,	 28,  5, 16, 25, 18,	  8,  6, 27, 23, 25,	 23, 28, 27, 29, 10,	
 18, 22,  7,  5, 23,	 29, 16, 12, 13, 18,	 10, 21, 29, 10,  8,	 17,  8, 11, 29,  5,	 24,  9,  8, 23, 29,	 29, 18, 27, 28, 17,	  7, 17, 11, 12, 17,	  6, 11,  5, 15, 21,	 18, 21, 13, 20, 28,	 18,  7,  8, 24,  6,	
  9, 21, 13, 12, 16,	 12, 13,  5, 12, 12,	 19, 16, 24, 26, 23,	 13, 29,  6, 13, 17,	 23, 29, 10,  6, 19,	  8, 21, 21, 11, 16,	 25, 17,  9,  8, 27,	 20, 17, 10, 22, 26,	 17, 12, 15, 13, 10,	 10, 21, 11, 12,  5,	
 23,  5, 29, 28,  8,	 18,  6, 24,  9, 15,	 12, 29, 27, 18,  9,	 24, 11, 24,  7, 28,	 20, 19, 12,  7, 28,	 17, 13, 21, 26, 20,	 21, 19, 22, 20, 18,	 27,  8, 21, 23, 15,	  6,  6, 16, 29, 21,	 23, 25, 27, 17, 27,	
 26,  9, 19, 10, 12,	 19, 25, 22, 10, 21,	 12, 27, 10,  6, 17,	 25, 28, 23, 17, 21,	 10, 18, 24, 21, 17,	 16, 14, 13, 13, 28,	 12, 11,  8, 26, 19,	 17, 15, 14,  9, 23,	  5, 18, 20, 12, 19,	  9,  8, 19, 29, 20,	
 12,  9,  8,  7, 26,	 23, 18, 12,  8, 28,	 11, 15, 12, 16, 14,	 26,  5, 24, 12, 11,	 17, 12, 24,  9, 21,	 15, 14, 24,  6, 13,	 14, 13, 18, 20, 15,	 16, 15,  5, 25, 18,	  6,  8, 28, 13, 19,	 12, 11, 21,  9, 18,	
 27, 23, 27, 23, 28,	 18,  8, 14, 13,  9,	 24, 24, 18, 14, 16,	  5, 25, 26,  6, 23,	 14,  7, 26, 15, 17,	 18, 24, 23,  9, 28,	 13,  9, 24, 10, 27,	 24, 23,  8,  8,  8,	 12, 27, 28, 27, 12,	 14, 28,  9, 13,  6,	
 27, 22, 10, 26,  9,	 22, 14, 29, 17, 20,	 29, 25, 24, 23,  7,	 22, 17, 25, 25, 22,	 29,  9, 20, 29,  9,	 29, 15,  9, 10, 23,	 10, 10, 18, 17,  6,	 22, 11, 15, 21, 23,	  7, 21, 20, 27, 16,	 22, 21,  6, 19, 18,	
 23, 18, 22, 15, 19,	 26, 16,  5,  7, 22,	 23, 14, 29, 11, 26,	  5,  6,  7, 17, 22,	 27, 19, 15, 17, 18,	 29,  9,  9,  5, 24,	 22, 25, 14, 17, 13,	 29, 13, 24,  6, 18,	 18, 26, 27, 17, 10,	 24, 19, 11, 28,  8,	
  0,  0,  0,  0,  0,	  0,  0,  0,  0,  0,	  0,  0,  0,  0,  0,	  0,  0,  0,  0,  0,	  0,  0,  0,  0,  0,	  0,  0,  0,  0,  0,	  0,  0,  0,  0,  0,	  0,  0,  0,  0,  0,	  0,  0,  0,  0,  0,	  0,  0,  0,  0,  0,	
]);

rs = 
[|true,true,true,true,true,
 |false,true,false,false,false,
 |false,false,false,true,false,
 |false,true,false,false,false,
 |false,false,false,true,false,
 |false,true,false,false,false,
 |true,false,false,false,false,
 |true,false,false,false,false,
 |false,false,false,true,false,
 |false,false,true,false,false,
 |false,false,false,false,true,
 |true,true,true,true,true,
 |];

d=[|0, 8, 23, 20, 12, 13, 28, 8, 12, 8, 21, 0, 
|8, 0, 26, 20, 11, 16, 22, 17, 6, 1, 29, 8, 
|23, 26, 0, 8, 35, 35, 48, 25, 32, 26, 32, 23, 
|20, 20, 8, 0, 31, 33, 41, 24, 26, 21, 34, 20, 
|12, 11, 35, 31, 0, 8, 17, 17, 6, 10, 27, 12, 
|13, 16, 35, 33, 8, 0, 25, 12, 14, 15, 19, 13, 
|28, 22, 48, 41, 17, 25, 0, 34, 16, 21, 44, 28, 
|8, 17, 25, 24, 17, 12, 34, 0, 20, 16, 12, 8, 
|12, 6, 32, 26, 6, 14, 16, 20, 0, 5, 31, 12, 
|8, 1, 26, 21, 10, 15, 21, 16, 5, 0, 28, 8, 
|21, 29, 32, 34, 27, 19, 44, 12, 31, 28, 0, 21, 
|0, 8, 23, 20, 12, 13, 28, 8, 12, 8, 21, 0, 
|];

%coord=[ (0,0), (-8,2), (10,21), (2,20), (-9,-9), (-1,-13), (-26,-11), (8,-4), (-12,-3), (-8,1), (18,-11), (0,0), ];

